clear
units           metal
atom_style      atomic
boundary        p p p

lattice         bcc 2.855
region          box block 0 50 0 50 0 50
create_box      1 box
create_atoms    1 region box

pair_style      eam/fs
pair_coeff      * * potentials/Fe_mm_zbl.eam.fs Fe

mass            1 55.845

neighbor        2.0 bin
neigh_modify    delay 0 every 1 check yes

write_data      structures/perfect_lattice_Fe.data

thermo          100
thermo_style    custom step temp pe ke etotal press vol
thermo_modify   flush yes

min_style       cg
minimize        1.0e-6 1.0e-8 1000 10000

velocity        all create 300.0 54321 dist gaussian
fix             1 all npt temp 300.0 300.0 0.1 iso 0.0 0.0 1.0
run             5000
unfix           1

write_restart   outputs/fe_equil.restart
